;; sat

(declare-const x1 sl.list.loc)
(declare-const x2 sl.list.loc)
(declare-const x3 sl.list.loc)
(declare-const x4 sl.list.loc)
(declare-const x5 sl.list.loc)
(declare-const x6 sl.list.loc)
(declare-const x7 sl.list.loc)
(declare-const x8 sl.list.loc)
(declare-const x9 sl.list.loc)
(declare-const x10 sl.list.loc)
(declare-const x11 sl.list.loc)
(declare-const x12 sl.list.loc)
(declare-const x13 sl.list.loc)
(declare-const x14 sl.list.loc)
(declare-const x15 sl.list.loc)
(declare-const x16 sl.list.loc)
(declare-const x17 sl.list.loc)
(declare-const x18 sl.list.loc)

(assert (and (sl.sepcon (sl.list.eq sl.list.null sl.list.null)
 (sl.sepcon (sl.sepcon (sl.sepcon (sl.sepcon (sl.sepcon (sl.sepcon (sl.sepcon (sl.sepcon (sl.sepcon (sl.sepcon (sl.sepcon (sl.sepcon (sl.sepcon (sl.sepcon (sl.sepcon (sl.sepcon (sl.sepcon (sl.list.seg x8 x6)
 (sl.list.next x6 x11)
)
 (sl.list.seg x15 x1)
)
 (sl.list.next x5 x6)
)
 (sl.list.next x2 x7)
)
 (sl.list.seg x11 x4)
)
 (sl.list.seg x9 x5)
)
 (sl.list.next x13 x14)
)
 (sl.list.seg x16 x18)
)
 (sl.list.next x7 x14)
)
 (sl.list.next x3 x18)
)
 (sl.list.next x4 x13)
)
 (sl.list.seg x18 x15)
)
 (sl.list.next x12 x16)
)
 (sl.list.next x10 x4)
)
 (sl.list.next x14 x10)
)
 (sl.list.next x17 x4)
)
 (sl.list.next x1 x16)
)
)
 (not (sl.sepcon (sl.sepcon (sl.sepcon (sl.sepcon (sl.sepcon (sl.sepcon (sl.sepcon (sl.sepcon (sl.list.seg x8 x6)
 (sl.list.seg x10 x4)
)
 (sl.list.seg x9 x4)
)
 (sl.list.seg x15 x1)
)
 (sl.list.seg x3 x18)
)
 (sl.list.seg x2 x14)
)
 (sl.list.seg x12 x16)
)
 (sl.list.seg x17 x10)
)
 (sl.list.seg x1 x15)
)
))
)

